28 19 
55 4 
42 80 
61 69 
11 90 
45 29 
74 84 
65 23 
42 88
24 32
90 39
3 67
15 45
99 2
69 73
22 12
50 50
16 7
23 9
13 7
4 79
46 65
56 24
36 74
81 29
33 55
11 45
41 94
38 11
40 70
67 28
82 5
30 70
10 10
3 70
8 45
72 47
80 35
22 56
58 40